User:   ameerracle@ANDesktopMint
Date:   Sat Feb 25 14:58:11 2023
Arch:   x86_64
Pid:    41779
Python: 3.10.6
gpaw:   /usr/lib/python3/dist-packages/gpaw
_gpaw:  /usr/lib/python3/dist-packages/_gpaw.cpython-310-x86_64-linux-gnu.so
ase:    /usr/lib/python3/dist-packages/ase (version 3.22.1)
numpy:  /home/ameerracle/.local/lib/python3.10/site-packages/numpy (version 1.23.5)
scipy:  /home/ameerracle/.local/lib/python3.10/site-packages/scipy (version 1.10.0)
units:  Angstrom and eV
cores: 1
OpenMP: False
OMP_NUM_THREADS: 1

Input parameters:
  kpts: [4 4 4]
  mode: {ecut: 400.0,
         name: pw}
  xc: PBE

System changes: positions, numbers, cell, pbc, initial_charges, initial_magmoms

Initialize ...

Ni-setup:
  name: Nickel
  id: 0d9f38a9d6e76a2886f07bb4381f212b
  Z: 28.0
  valence: 16
  core: 12
  charge: 0.0
  file: /usr/share/gpaw-setups/Ni.PBE.gz
  compensation charges: gauss, rc=0.36, lmax=2
  cutoffs: 2.14(filt), 1.98(core),
  valence states:
                energy  radius
    4s(2.00)    -5.642   1.164
    3p(6.00)   -71.394   1.207
    4p(0.00)    -1.226   1.207
    3d(8.00)    -8.875   1.138
    *s          21.570   1.164
    *d          18.337   1.138

  Using partial waves for Ni as LCAO basis

Reference energy: -165471.993789

Spin-paired calculation

Convergence criteria:
 Maximum [total energy] change in last 3 cyles: 0.0005 eV / electron
 Maximum integral of absolute [dens]ity change: 0.0001 electrons / valence electron
 Maximum integral of absolute [eigenst]ate change: 4e-08 eV^2 / valence electron
 Maximum number of scf [iter]ations: 333
 (Square brackets indicate name in SCF output, whereas a 'c' in
 the SCF output indicates the quantity has converged.)

Symmetries present (total): 48

  ( 1  0  0)  ( 1  0  0)  ( 1  0  0)  ( 1  0  0)  ( 1  0  0)  ( 1  0  0)
  ( 0  1  0)  ( 0  1  0)  ( 0  0  1)  ( 0  0  1)  ( 0  0 -1)  ( 0  0 -1)
  ( 0  0  1)  ( 0  0 -1)  ( 0  1  0)  ( 0 -1  0)  ( 0  1  0)  ( 0 -1  0)

  ( 1  0  0)  ( 1  0  0)  ( 0  1  0)  ( 0  1  0)  ( 0  1  0)  ( 0  1  0)
  ( 0 -1  0)  ( 0 -1  0)  ( 1  0  0)  ( 1  0  0)  ( 0  0  1)  ( 0  0  1)
  ( 0  0  1)  ( 0  0 -1)  ( 0  0  1)  ( 0  0 -1)  ( 1  0  0)  (-1  0  0)

  ( 0  1  0)  ( 0  1  0)  ( 0  1  0)  ( 0  1  0)  ( 0  0  1)  ( 0  0  1)
  ( 0  0 -1)  ( 0  0 -1)  (-1  0  0)  (-1  0  0)  ( 1  0  0)  ( 1  0  0)
  ( 1  0  0)  (-1  0  0)  ( 0  0  1)  ( 0  0 -1)  ( 0  1  0)  ( 0 -1  0)

  ( 0  0  1)  ( 0  0  1)  ( 0  0  1)  ( 0  0  1)  ( 0  0  1)  ( 0  0  1)
  ( 0  1  0)  ( 0  1  0)  ( 0 -1  0)  ( 0 -1  0)  (-1  0  0)  (-1  0  0)
  ( 1  0  0)  (-1  0  0)  ( 1  0  0)  (-1  0  0)  ( 0  1  0)  ( 0 -1  0)

  ( 0  0 -1)  ( 0  0 -1)  ( 0  0 -1)  ( 0  0 -1)  ( 0  0 -1)  ( 0  0 -1)
  ( 1  0  0)  ( 1  0  0)  ( 0  1  0)  ( 0  1  0)  ( 0 -1  0)  ( 0 -1  0)
  ( 0  1  0)  ( 0 -1  0)  ( 1  0  0)  (-1  0  0)  ( 1  0  0)  (-1  0  0)

  ( 0  0 -1)  ( 0  0 -1)  ( 0 -1  0)  ( 0 -1  0)  ( 0 -1  0)  ( 0 -1  0)
  (-1  0  0)  (-1  0  0)  ( 1  0  0)  ( 1  0  0)  ( 0  0  1)  ( 0  0  1)
  ( 0  1  0)  ( 0 -1  0)  ( 0  0  1)  ( 0  0 -1)  ( 1  0  0)  (-1  0  0)

  ( 0 -1  0)  ( 0 -1  0)  ( 0 -1  0)  ( 0 -1  0)  (-1  0  0)  (-1  0  0)
  ( 0  0 -1)  ( 0  0 -1)  (-1  0  0)  (-1  0  0)  ( 0  1  0)  ( 0  1  0)
  ( 1  0  0)  (-1  0  0)  ( 0  0  1)  ( 0  0 -1)  ( 0  0  1)  ( 0  0 -1)

  (-1  0  0)  (-1  0  0)  (-1  0  0)  (-1  0  0)  (-1  0  0)  (-1  0  0)
  ( 0  0  1)  ( 0  0  1)  ( 0  0 -1)  ( 0  0 -1)  ( 0 -1  0)  ( 0 -1  0)
  ( 0  1  0)  ( 0 -1  0)  ( 0  1  0)  ( 0 -1  0)  ( 0  0  1)  ( 0  0 -1)

64 k-points: 4 x 4 x 4 Monkhorst-Pack grid
4 k-points in the irreducible part of the Brillouin zone
       k-points in crystal coordinates                weights
   0:     0.12500000    0.12500000    0.12500000          8/64
   1:     0.37500000    0.12500000    0.12500000         24/64
   2:     0.37500000    0.37500000    0.12500000         24/64
   3:     0.37500000    0.37500000    0.37500000          8/64

Wave functions: Plane wave expansion
  Cutoff energy: 400.000 eV
  Number of coefficients (min, max): 787, 798
  Pulay-stress correction: 0.000000 eV/Ang^3 (de/decut=0.000000)
  Using FFTW library
  ScaLapack parameters: grid=1x1, blocksize=None
  Wavefunction extrapolation:
    Improved wavefunction reuse through dual PAW basis

Occupation numbers: Fermi-Dirac: width=0.1000 eV

Eigensolver
   Davidson(niter=2)

Densities:
  Coarse grid: 18*18*18 grid
  Fine grid: 36*36*36 grid
  Total Charge: 0.000000

Density mixing:
  Method: separate
  Backend: pulay
  Linear mixing parameter: 0.05
  Mixing with 5 old densities
  Damping of long wave oscillations: 50

Hamiltonian:
  XC and Coulomb potentials evaluated on a 36*36*36 grid
  Using the PBE Exchange-Correlation functional
  External potential:
    NoExternalPotential

XC parameters: PBE with 2 nearest neighbor stencil

Total number of cores used: 1

Number of atoms: 4
Number of atomic orbitals: 48
Number of bands in calculation: 43
Number of valence electrons: 64
Bands to converge: occupied

... initialized

Initializing position-dependent things.

Density initialized from atomic densities
Creating initial wave functions:
  43 bands from LCAO basis set

 |Ni        |
 | .-Ni-----.
 |/    Ni  /
 Ni-------*

Positions:
   0 Ni     0.000000    0.000000    0.000000    ( 0.0000,  0.0000,  0.0000)
   1 Ni     0.000000    1.760000    1.760000    ( 0.0000,  0.0000,  0.0000)
   2 Ni     1.760000    0.000000    1.760000    ( 0.0000,  0.0000,  0.0000)
   3 Ni     1.760000    1.760000    0.000000    ( 0.0000,  0.0000,  0.0000)

Unit cell:
           periodic     x           y           z      points  spacing
  1. axis:    yes    3.520000    0.000000    0.000000    18     0.1956
  2. axis:    yes    0.000000    3.520000    0.000000    18     0.1956
  3. axis:    yes    0.000000    0.000000    3.520000    18     0.1956

  Lengths:   3.520000   3.520000   3.520000
  Angles:   90.000000  90.000000  90.000000

Effective grid spacing dv^(1/3) = 0.1956

     iter     time        total  log10-change:
                         energy  eigst   dens
iter:   1 14:58:13   -28.255604
iter:   2 14:58:13   -28.390860  -0.52  -1.82
iter:   3 14:58:14   -28.478390  -1.20  -1.89
iter:   4 14:58:14   -28.778122  -1.73  -1.99
iter:   5 14:58:14   -28.738999  -2.57  -2.16
iter:   6 14:58:15   -28.735878  -3.00  -2.69
iter:   7 14:58:15   -28.737403c -3.89  -3.31
iter:   8 14:58:15   -28.735303c -4.11  -2.95
iter:   9 14:58:16   -28.735370c -4.82  -3.87
iter:  10 14:58:16   -28.735336c -5.41  -4.24c
iter:  11 14:58:17   -28.735327c -5.81  -4.86c
iter:  12 14:58:17   -28.735342c -6.18  -4.83c
iter:  13 14:58:17   -28.735321c -6.53  -4.72c
iter:  14 14:58:18   -28.735325c -6.92  -4.70c
iter:  15 14:58:18   -28.735326c -7.49c -5.49c

Converged after 15 iterations.

Dipole moment: (0.000000, 0.000000, 0.000000) |e|*Ang

Energy contributions relative to reference atoms: (reference = -165471.993789)

Kinetic:        +26.877099
Potential:      -19.623878
External:        +0.000000
XC:             -36.272860
Entropy (-ST):   -0.398271
Local:           +0.483449
Free energy:    -28.934462
Extrapolated:   -28.735326

Showing only first 2 kpts
 Kpt  Band  Eigenvalues  Occupancy
  0    30      8.45965    0.63411
  0    31      8.45965    0.63411
  0    32      8.45965    0.63410
  0    33     11.05755    0.00000

  1    30      8.24175    1.60805
  1    31      8.37504    1.03933
  1    32      8.37505    1.03931
  1    33      8.43081    0.76501

Fermi level: 8.38291

No gap
Stress tensor:
     0.008127    -0.000000     0.000000
    -0.000000     0.008127     0.000000
     0.000000     0.000000     0.008127
System changes: cell, positions

[...]

        Ni
            Ni
             Ni
       Ni

[...]

No gap
Stress tensor:
    -0.012492     0.000000     0.000000
     0.000000    -0.012492     0.000000
     0.000000     0.000000    -0.012492
System changes: cell, positions

Initialize ...

Ni-setup:
  name: Nickel
  id: 0d9f38a9d6e76a2886f07bb4381f212b
  Z: 28.0
  valence: 16
  core: 12
  charge: 0.0
  file: /usr/share/gpaw-setups/Ni.PBE.gz
  compensation charges: gauss, rc=0.36, lmax=2
  cutoffs: 2.14(filt), 1.98(core),
  valence states:
                energy  radius
    4s(2.00)    -5.642   1.164
    3p(6.00)   -71.394   1.207
    4p(0.00)    -1.226   1.207
    3d(8.00)    -8.875   1.138
    *s          21.570   1.164
    *d          18.337   1.138

  Using partial waves for Ni as LCAO basis

Reference energy: -165471.993789

Spin-paired calculation

Convergence criteria:
 Maximum [total energy] change in last 3 cyles: 0.0005 eV / electron
 Maximum integral of absolute [dens]ity change: 0.0001 electrons / valence electron
 Maximum integral of absolute [eigenst]ate change: 4e-08 eV^2 / valence electron
 Maximum number of scf [iter]ations: 333
 (Square brackets indicate name in SCF output, whereas a 'c' in
 the SCF output indicates the quantity has converged.)

Symmetries present (total): 48

  ( 1  0  0)  ( 1  0  0)  ( 1  0  0)  ( 1  0  0)  ( 1  0  0)  ( 1  0  0)
  ( 0  1  0)  ( 0  1  0)  ( 0  0  1)  ( 0  0  1)  ( 0  0 -1)  ( 0  0 -1)
  ( 0  0  1)  ( 0  0 -1)  ( 0  1  0)  ( 0 -1  0)  ( 0  1  0)  ( 0 -1  0)

  ( 1  0  0)  ( 1  0  0)  ( 0  1  0)  ( 0  1  0)  ( 0  1  0)  ( 0  1  0)
  ( 0 -1  0)  ( 0 -1  0)  ( 1  0  0)  ( 1  0  0)  ( 0  0  1)  ( 0  0  1)
  ( 0  0  1)  ( 0  0 -1)  ( 0  0  1)  ( 0  0 -1)  ( 1  0  0)  (-1  0  0)

  ( 0  1  0)  ( 0  1  0)  ( 0  1  0)  ( 0  1  0)  ( 0  0  1)  ( 0  0  1)
  ( 0  0 -1)  ( 0  0 -1)  (-1  0  0)  (-1  0  0)  ( 1  0  0)  ( 1  0  0)
  ( 1  0  0)  (-1  0  0)  ( 0  0  1)  ( 0  0 -1)  ( 0  1  0)  ( 0 -1  0)

  ( 0  0  1)  ( 0  0  1)  ( 0  0  1)  ( 0  0  1)  ( 0  0  1)  ( 0  0  1)
  ( 0  1  0)  ( 0  1  0)  ( 0 -1  0)  ( 0 -1  0)  (-1  0  0)  (-1  0  0)
  ( 1  0  0)  (-1  0  0)  ( 1  0  0)  (-1  0  0)  ( 0  1  0)  ( 0 -1  0)

  ( 0  0 -1)  ( 0  0 -1)  ( 0  0 -1)  ( 0  0 -1)  ( 0  0 -1)  ( 0  0 -1)
  ( 1  0  0)  ( 1  0  0)  ( 0  1  0)  ( 0  1  0)  ( 0 -1  0)  ( 0 -1  0)
  ( 0  1  0)  ( 0 -1  0)  ( 1  0  0)  (-1  0  0)  ( 1  0  0)  (-1  0  0)

  ( 0  0 -1)  ( 0  0 -1)  ( 0 -1  0)  ( 0 -1  0)  ( 0 -1  0)  ( 0 -1  0)
  (-1  0  0)  (-1  0  0)  ( 1  0  0)  ( 1  0  0)  ( 0  0  1)  ( 0  0  1)
  ( 0  1  0)  ( 0 -1  0)  ( 0  0  1)  ( 0  0 -1)  ( 1  0  0)  (-1  0  0)

  ( 0 -1  0)  ( 0 -1  0)  ( 0 -1  0)  ( 0 -1  0)  (-1  0  0)  (-1  0  0)
  ( 0  0 -1)  ( 0  0 -1)  (-1  0  0)  (-1  0  0)  ( 0  1  0)  ( 0  1  0)
  ( 1  0  0)  (-1  0  0)  ( 0  0  1)  ( 0  0 -1)  ( 0  0  1)  ( 0  0 -1)

  (-1  0  0)  (-1  0  0)  (-1  0  0)  (-1  0  0)  (-1  0  0)  (-1  0  0)
  ( 0  0  1)  ( 0  0  1)  ( 0  0 -1)  ( 0  0 -1)  ( 0 -1  0)  ( 0 -1  0)
  ( 0  1  0)  ( 0 -1  0)  ( 0  1  0)  ( 0 -1  0)  ( 0  0  1)  ( 0  0 -1)

64 k-points: 4 x 4 x 4 Monkhorst-Pack grid
4 k-points in the irreducible part of the Brillouin zone
       k-points in crystal coordinates                weights
   0:     0.12500000    0.12500000    0.12500000          8/64
   1:     0.37500000    0.12500000    0.12500000         24/64
   2:     0.37500000    0.37500000    0.12500000         24/64
   3:     0.37500000    0.37500000    0.37500000          8/64

Wave functions: Plane wave expansion
  Cutoff energy: 400.000 eV
  Number of coefficients (min, max): 786, 794
  Pulay-stress correction: 0.000000 eV/Ang^3 (de/decut=0.000000)
  Using FFTW library
  ScaLapack parameters: grid=1x1, blocksize=None
  Wavefunction extrapolation:
    Improved wavefunction reuse through dual PAW basis

Occupation numbers: Fermi-Dirac: width=0.1000 eV

Eigensolver
   Davidson(niter=2)

Densities:
  Coarse grid: 18*18*18 grid
  Fine grid: 36*36*36 grid
  Total Charge: 0.000000

Density mixing:
  Method: separate
  Backend: pulay
  Linear mixing parameter: 0.05
  Mixing with 5 old densities
  Damping of long wave oscillations: 50

Hamiltonian:
  XC and Coulomb potentials evaluated on a 36*36*36 grid
  Using the PBE Exchange-Correlation functional
  External potential:
    NoExternalPotential

XC parameters: PBE with 2 nearest neighbor stencil

Total number of cores used: 1

Number of atoms: 4
Number of atomic orbitals: 48
Number of bands in calculation: 43
Number of valence electrons: 64
Bands to converge: occupied

... initialized

Initializing position-dependent things.

Density initialized from atomic densities
Creating initial wave functions:
  43 bands from LCAO basis set

        Ni
            Ni
             Ni
       Ni

Positions:
   0 Ni     0.000000    0.000000    0.000000    ( 0.0000,  0.0000,  0.0000)
   1 Ni     0.000000    1.756455    1.756455    ( 0.0000,  0.0000,  0.0000)
   2 Ni     1.756455    0.000000    1.756455    ( 0.0000,  0.0000,  0.0000)
   3 Ni     1.756455    1.756455    0.000000    ( 0.0000,  0.0000,  0.0000)

Unit cell:
           periodic     x           y           z      points  spacing
  1. axis:    yes    3.512910    0.000000    0.000000    18     0.1952
  2. axis:    yes    0.000000    3.512910    0.000000    18     0.1952
  3. axis:    yes    0.000000    0.000000    3.512910    18     0.1952

  Lengths:   3.512910   3.512910   3.512910
  Angles:   90.000000  90.000000  90.000000

Effective grid spacing dv^(1/3) = 0.1952

     iter     time        total  log10-change:
                         energy  eigst   dens
iter:   1 14:58:29   -28.246165
iter:   2 14:58:29   -28.383653  -0.52  -1.83
iter:   3 14:58:29   -28.473158  -1.19  -1.89
iter:   4 14:58:30   -28.774895  -1.72  -1.99
iter:   5 14:58:30   -28.737851  -2.56  -2.17
iter:   6 14:58:31   -28.734829  -3.04  -2.70
iter:   7 14:58:31   -28.736398c -3.83  -3.33
iter:   8 14:58:31   -28.734229c -4.02  -2.95
iter:   9 14:58:32   -28.734277c -4.63  -3.78
iter:  10 14:58:32   -28.734263c -4.99  -4.51c
iter:  11 14:58:33   -28.734253c -5.38  -4.83c
iter:  12 14:58:33   -28.734260c -5.73  -4.81c
iter:  13 14:58:33   -28.734256c -6.06  -5.01c
iter:  14 14:58:34   -28.734252c -6.37  -4.99c
iter:  15 14:58:34   -28.734254c -6.86  -5.63c
iter:  16 14:58:35   -28.734253c -8.02c -6.28c

Converged after 16 iterations.

Dipole moment: (-0.000000, -0.000000, -0.000000) |e|*Ang

Energy contributions relative to reference atoms: (reference = -165471.993789)

Kinetic:        +27.854359
Potential:      -20.368932
External:        +0.000000
XC:             -36.499971
Entropy (-ST):   -0.396640
Local:           +0.478611
Free energy:    -28.932573
Extrapolated:   -28.734253

Showing only first 2 kpts
 Kpt  Band  Eigenvalues  Occupancy
  0    30      8.54254    0.62983
  0    31      8.54254    0.62983
  0    32      8.54254    0.62982
  0    33     11.15074    0.00000

  1    30      8.32260    1.61136
  1    31      8.45739    1.03711
  1    32      8.45739    1.03709
  1    33      8.51313    0.76301

Fermi level: 8.46482

No gap
Stress tensor:
    -0.000051    -0.000000     0.000000
    -0.000000    -0.000051     0.000000
     0.000000     0.000000    -0.000051
Timing:                              incl.     excl.
Hamiltonian:                         0.384     0.001   0.0% |
 Atomic:                             0.357     0.048   0.2% |
  XC Correction:                     0.309     0.309   1.3% ||
 Calculate atomic Hamiltonians:      0.004     0.004   0.0% |
 Communicate:                        0.000     0.000   0.0% |
 Initialize Hamiltonian:             0.000     0.000   0.0% |
 Poisson:                            0.000     0.000   0.0% |
 XC 3D grid:                         0.022     0.022   0.1% |
LCAO initialization:                 3.695     0.114   0.5% |
 LCAO eigensolver:                   1.961     0.000   0.0% |
  Calculate projections:             0.001     0.001   0.0% |
  DenseAtomicCorrection:             0.002     0.002   0.0% |
  Distribute overlap matrix:         0.000     0.000   0.0% |
  Orbital Layouts:                   0.043     0.043   0.2% |
  Potential matrix:                  1.836     1.836   7.8% |--|
  Sum over cells:                    0.078     0.078   0.3% |
 LCAO to grid:                       1.214     1.214   5.1% |-|
 Set positions (LCAO WFS):           0.407     0.074   0.3% |
  Basic WFS set positions:           0.011     0.011   0.0% |
  Basis functions set positions:     0.000     0.000   0.0% |
  P tci:                             0.102     0.102   0.4% |
  ST tci:                            0.168     0.168   0.7% |
  mktci:                             0.052     0.052   0.2% |
PWDescriptor:                        0.004     0.004   0.0% |
SCF-cycle:                          18.721     0.073   0.3% |
 Davidson:                          10.374     1.386   5.9% |-|
  Apply H:                           1.406     1.357   5.7% |-|
   HMM T:                            0.049     0.049   0.2% |
  Subspace diag:                     1.791     0.009   0.0% |
   calc_h_matrix:                    1.450     0.137   0.6% |
    Apply H:                         1.313     1.267   5.3% |-|
     HMM T:                          0.047     0.047   0.2% |
   diagonalize:                      0.141     0.141   0.6% |
   rotate_psi:                       0.190     0.190   0.8% |
  calc. matrices:                    3.691     0.878   3.7% ||
   Apply H:                          2.813     2.722  11.5% |----|
    HMM T:                           0.091     0.091   0.4% |
  diagonalize:                       1.794     1.794   7.6% |--|
  rotate_psi:                        0.307     0.307   1.3% ||
 Density:                            1.161     0.000   0.0% |
  Atomic density matrices:           0.104     0.104   0.4% |
  Mix:                               0.201     0.201   0.8% |
  Multipole moments:                 0.004     0.004   0.0% |
  Pseudo density:                    0.851     0.589   2.5% ||
   Symmetrize density:               0.262     0.262   1.1% |
 Hamiltonian:                        7.093     0.010   0.0% |
  Atomic:                            6.376     0.382   1.6% ||
   XC Correction:                    5.994     5.994  25.3% |---------|
  Calculate atomic Hamiltonians:     0.068     0.068   0.3% |
  Communicate:                       0.000     0.000   0.0% |
  Poisson:                           0.006     0.006   0.0% |
  XC 3D grid:                        0.633     0.633   2.7% ||
 Orthonormalize:                     0.020     0.000   0.0% |
  calc_s_matrix:                     0.004     0.004   0.0% |
  inverse-cholesky:                  0.001     0.001   0.0% |
  projections:                       0.009     0.009   0.0% |
  rotate_psi_s:                      0.005     0.005   0.0% |
Set symmetry:                        0.032     0.032   0.1% |
Stress:                              0.385     0.000   0.0% |
 Stress tensor:                      0.385     0.385   1.6% ||
Other:                               0.454     0.454   1.9% ||
Total:                                        23.674 100.0%